C  N  H  Pb Br
 1.0000000000000000
    12.1809669968231606    0.0000000000000000    0.0000000000000000
     0.0000000000000000   12.1809669968231606    0.0000000000000000
     0.0000000000000000    0.0000000000000000   12.1809669968231606
 C   N   H   Pb  Br 
   8   8  48   8  24
Cartesian
 11.6093342996406346 12.1806931491955250 12.0464358166576062
 11.6093342996406346 12.1806931491955250  5.9559523182460259
 11.6093342996406346  6.0902096507839447 12.0464358166576062
 11.6093342996406346  6.0902096507839447  5.9559523182460259
  5.5188508012290534 12.1806931491955250 12.0464358166576062
  5.5188508012290534 12.1806931491955250  5.9559523182460259
  5.5188508012290534  6.0902096507839447 12.0464358166576062
  5.5188508012290534  6.0902096507839447  5.9559523182460259
  0.8759207075149711 12.1804246983453162  0.2146303517370322
  0.8759207075149711 12.1804246983453162  6.3051138501486115
  0.8759207075149711  6.0899411999337367  0.2146303517370322
  0.8759207075149711  6.0899411999337367  6.3051138501486115
  6.9664042059265512 12.1804246983453162  0.2146303517370322
  6.9664042059265512 12.1804246983453162  6.3051138501486115
  6.9664042059265512  6.0899411999337367  0.2146303517370322
  6.9664042059265512  6.0899411999337367  6.3051138501486115
 11.5082056837341451 12.1803146981228529 10.9531704463406232
 11.5082056837341451 12.1803146981228529  4.8626869479290420
 11.5082056837341451  6.0898311997112717 10.9531704463406232
 11.5082056837341451  6.0898311997112717  4.8626869479290420
  5.4177221853225639 12.1803146981228529 10.9531704463406232
  5.4177221853225639 12.1803146981228529  4.8626869479290420
  5.4177221853225639  6.0898311997112717 10.9531704463406232
  5.4177221853225639  6.0898311997112717  4.8626869479290420
 11.1470590834093173  0.9015357980765585  0.2883695755034367
 11.1470590834093173  0.9015357980765585  6.3788530739150158
 11.1470590834093173  6.9920192964881398  0.2883695755034367
 11.1470590834093173  6.9920192964881398  6.3788530739150158
  5.0565755849977361  0.9015357980765585  0.2883695755034367
  5.0565755849977361  0.9015357980765585  6.3788530739150158
  5.0565755849977361  6.9920192964881398  0.2883695755034367
  5.0565755849977361  6.9920192964881398  6.3788530739150158
 11.1465598489131459 11.2794468634701595  0.2890354766895905
 11.1465598489131459 11.2794468634701595  6.3795189751011705
 11.1465598489131459  5.1889633650585800  0.2890354766895905
 11.1465598489131459  5.1889633650585800  6.3795189751011705
  5.0560763505015647 11.2794468634701595  0.2890354766895905
  5.0560763505015647 11.2794468634701595  6.3795189751011705
  5.0560763505015647  5.1889633650585800  0.2890354766895905
  5.0560763505015647  5.1889633650585800  6.3795189751011705
  1.3633708173044483  0.8454631374738736 12.0235184137953404
  1.3633708173044483  0.8454631374738736  5.9330349153837592
  1.3633708173044483  6.9359466358854540 12.0235184137953404
  1.3633708173044483  6.9359466358854540  5.9330349153837592
  7.4538543157160291  0.8454631374738736 12.0235184137953404
  7.4538543157160291  0.8454631374738736  5.9330349153837592
  7.4538543157160291  6.9359466358854540 12.0235184137953404
  7.4538543157160291  6.9359466358854540  5.9330349153837592
  1.3629858329701268 11.3339656943426998 12.0239906832848717
  1.3629858329701268 11.3339656943426998  5.9335071848732897
  1.3629858329701268  5.2434821959311195 12.0239906832848717
  1.3629858329701268  5.2434821959311195  5.9335071848732897
  7.4534693313817062 11.3339656943426998 12.0239906832848717
  7.4534693313817062 11.3339656943426998  5.9335071848732897
  7.4534693313817062  5.2434821959311195 12.0239906832848717
  7.4534693313817062  5.2434821959311195  5.9335071848732897
  1.0485070508512635 12.1806646091898525  1.2475987398578312
  1.0485070508512635 12.1806646091898525  7.3380822382694122
  1.0485070508512635  6.0901811107782713  1.2475987398578312
  1.0485070508512635  6.0901811107782713  7.3380822382694122
  7.1389905492628438 12.1806646091898525  1.2475987398578312
  7.1389905492628438 12.1806646091898525  7.3380822382694122
  7.1389905492628438  6.0901811107782713  1.2475987398578312
  7.1389905492628438  6.0901811107782713  7.3380822382694122
  2.8634248487485685  3.0449656328730512  2.9712202558911684
  2.8634248487485685  3.0449656328730512  9.0617037543027479
  2.8634248487485685  9.1354491312846307  2.9712202558911684
  2.8634248487485685  9.1354491312846307  9.0617037543027479
  8.9539083471601479  3.0449656328730512  2.9712202558911684
  8.9539083471601479  3.0449656328730512  9.0617037543027479
  8.9539083471601479  9.1354491312846307  2.9712202558911684
  8.9539083471601479  9.1354491312846307  9.0617037543027479
  2.5508115585814313  3.0448006648189163  5.9728573182173790
  2.5508115585814313  3.0448006648189163 12.0633408166289584
  2.5508115585814313  9.1352841632304962  5.9728573182173790
  2.5508115585814313  9.1352841632304962 12.0633408166289584
  8.6412950569930125  3.0448006648189163  5.9728573182173790
  8.6412950569930125  3.0448006648189163 12.0633408166289584
  8.6412950569930125  9.1352841632304962  5.9728573182173790
  8.6412950569930125  9.1352841632304962 12.0633408166289584
  2.5886657266609965 12.1807365329275825  3.1154617028018241
  2.5886657266609965 12.1807365329275825  9.2059452012134049
  2.5886657266609965  6.0902530345160004  3.1154617028018241
  2.5886657266609965  6.0902530345160004  9.2059452012134049
  8.6791492250725764 12.1807365329275825  3.1154617028018241
  8.6791492250725764 12.1807365329275825  9.2059452012134049
  8.6791492250725764  6.0902530345160004  3.1154617028018241
  8.6791492250725764  6.0902530345160004  9.2059452012134049
  5.7511272813395715  3.0452343108982936  2.7781332519148250
  5.7511272813395715  3.0452343108982936  8.8686167503264048
  5.7511272813395715  9.1357178093098739  2.7781332519148250
  5.7511272813395715  9.1357178093098739  8.8686167503264048
 11.8416107797511518  3.0452343108982936  2.7781332519148250
 11.8416107797511518  3.0452343108982936  8.8686167503264048
 11.8416107797511518  9.1357178093098739  2.7781332519148250
 11.8416107797511518  9.1357178093098739  8.8686167503264048
